letting initialStacks = [7, 14, 47, 22, 35, 31, 36, 21, 2, 45, 29, 28, 25, 41, 50, 18, 39, 24, 49, 40, 33, 19, 20, 23, 32, 15, 44, 3, 11, 9, 38, 48, 10, 27, 51, 42, 37, 34, 12, 13, 46, 6, 4, 5, 16, 30, 17, 1, 26, 8, 43]
